
param K :=
3038.938
;
 
param ProcV :=
1 64.13365
2 60.86797
3 59.99036
4 61.20504
;
 
param demand :=
1 1900
2 1200
3 1600
4 600
;
 
param cost :
1 2 3 4 :=
1
0
6
8
12
2
6
0
3
6
3
8
3
0
3
4
12
6
3
0
;
 
